peakDumbCharging = 14800; 
Machine = anon_enum(16); 
machineSpeed = [3700,3700,3700,3700,3700,3700,3700,3700,3700,3700,3700,3700,3700,3700,3700,3700]; 
machineLoad = [3700,3700,3700,3700,3700,3700,3700,3700,3700,3700,3700,3700,3700,3700,3700,3700]; 
Car = anon_enum(12); 
demandCar = [14960,6520,1640,12840,13600,14760,15200,7520,9680,10040,4240,18480]; 
arrivalCar = [69,66,64,58,58,57,53,53,46,45,39,38]; 
departureCar = [76,69,66,64,66,65,62,58,52,51,50,44]; 
